NAME : P133112.64308.tour
COMMENT : Length = 64308
COMMENT : Found by LKH-3 [Keld Helsgaun] Tue Dec 17 14:07:48 2024
TYPE : TOUR
DIMENSION : 170
TOUR_SECTION
1
161
2
162
3
139
140
132
134
37
122
136
21
22
32
141
39
124
130
115
129
116
117
123
118
125
121
133
138
135
119
131
128
126
16
120
127
137
163
4
164
5
165
6
166
7
18
27
23
26
31
19
112
30
107
99
102
97
101
95
110
106
104
113
92
91
100
108
98
96
103
94
111
109
93
114
105
15
29
76
70
66
77
88
73
89
71
68
90
83
87
75
78
82
69
86
67
84
72
74
79
80
81
20
85
35
17
36
25
24
167
8
168
9
169
10
34
11
13
38
157
152
151
147
153
148
144
154
159
160
156
145
158
155
142
146
150
143
149
61
59
45
40
41
60
54
55
46
62
58
65
49
56
47
53
48
63
43
51
64
50
52
42
44
57
33
28
14
12
170
-1
EOF
